NAME: random-42-18804
TYPE: TSP
COMMENT: size=42 seed=18804
DIMENSION: 86
EDGE_WEIGHT_TYPE: EUC_2D
NODE_COORD_SECTION
+0 828 165
-0 828 165
+1 74 989
-1 428 957
+2 961 11
-2 243 411
+3 193 218
-3 313 292
+4 768 948
-4 137 416
+5 662 518
-5 511 963
+6 823 656
-6 933 0
+7 230 645
-7 289 300
+8 703 544
-8 113 648
+9 404 515
-9 671 841
+10 153 963
-10 536 742
+11 543 178
-11 893 672
+12 160 746
-12 593 11
+13 495 633
-13 587 203
+14 940 871
-14 8 726
+15 371 375
-15 320 943
+16 860 476
-16 920 250
+17 125 390
-17 87 443
+18 670 51
-18 693 205
+19 634 117
-19 307 22
+20 258 597
-20 910 389
+21 746 241
-21 999 736
+22 533 516
-22 704 172
+23 820 931
-23 203 235
+24 708 467
-24 744 59
+25 163 882
-25 484 321
+26 318 229
-26 372 401
+27 673 485
-27 928 434
+28 64 97
-28 937 641
+29 580 796
-29 239 804
+30 670 367
-30 344 302
+31 845 763
-31 360 503
+32 377 211
-32 702 593
+33 506 644
-33 330 454
+34 921 670
-34 957 104
+35 248 769
-35 673 933
+36 234 318
-36 658 482
+37 560 482
-37 413 208
+38 637 344
-38 75 988
+39 202 878
-39 837 604
+40 872 998
-40 612 893
+41 501 691
-41 587 86
+42 312 731
-42 202 285
PRECEDENCE_SECTION
+0 -0
+1 -1
+2 -2
+3 -3
+4 -4
+5 -5
+6 -6
+7 -7
+8 -8
+9 -9
+10 -10
+11 -11
+12 -12
+13 -13
+14 -14
+15 -15
+16 -16
+17 -17
+18 -18
+19 -19
+20 -20
+21 -21
+22 -22
+23 -23
+24 -24
+25 -25
+26 -26
+27 -27
+28 -28
+29 -29
+30 -30
+31 -31
+32 -32
+33 -33
+34 -34
+35 -35
+36 -36
+37 -37
+38 -38
+39 -39
+40 -40
+41 -41
+42 -42
EOF
